c Reduced graph for GEOM30_4 generated by Cyril Grelier
p edge 11 22
e 1 3
e 1 4
e 1 6
e 1 9
e 2 5
e 2 7
e 2 8
e 2 10
e 2 11
e 3 9
e 4 6
e 5 7
e 5 8
e 5 10
e 5 11
e 6 9
e 7 8
e 7 10
e 7 11
e 8 10
e 8 11
e 10 11
